(set-logic QF_S)
(declare-fun var0 () String)
(declare-fun var1 () String)
(declare-fun var2 () Int)
(declare-fun var3 () Int)
(declare-fun var4 () String)
(declare-fun var5 () Int)
(declare-fun var6 () Int)
(declare-fun var7 () String)
(assert (not (str.contains (str.at var0 147) (str.substr var1 var2 var3))))
(assert (str.prefixof (str.replace (str.substr var4 var5 var6) (str.replace var7 var4 var0) (str.at var1 var5)) (str.replace (str.substr var4 var2 var6) (str.replace var7 var4 var1) (str.substr var0 var6 var6))))
(assert (< (str.len var7) (str.to.int var4)))
(assert (str.suffixof (str.substr (str.at var4 var2) (str.to.int var1) (str.to.int var7)) (str.replace (str.substr var0 39 var3) (str.replace var4 "|j" var7) (str.substr var1 var2 var6))))
(check-sat)